portfolio/optimizer.lp
Maximize
1.8603 w1 + 0.483 w2 + 0.4668 w3 + 0.8099 w4 + 0.447 w5 + 0.7591 w6 + 0.7655 w7 + 1.8953 w8 + 2.1435 w9
Subject To
weight: w1 + w2 + w3 + w4 + w5 + w6 + w7 + w8 + w9 = 1000
beta: 1.22786 w1 + 1.67555 w2 + 1.24725 w3 + 1.50086 w4 + 1.46988 w5 + 1.30549 w6 + 1.03469 w7 + 1.44874 w8 +1.65456 w9 <= 1300
Bounds
10 < w1 <= 200
10 < w2 <= 200
10 < w3 <= 200
10 < w4 <= 200
10 < w5 <= 200
10 < w6 <= 200
10 < w7 <= 200
10 < w8 <= 200
10 < w9 <= 200
Integers
w1 w2 w3 w4 w5 w6 w7 w8 w9
End
