portfolio/optimizer.sol
# Objective value = 1.3095279000000000e+03
w1 200
w2 10
w3 79
w4 10
w5 10
w6 197
w7 200
w8 200
w9 94
